\ LP format - for model browsing. Use MPS format to capture full model detail.
Maximize
  + 1684.615384615385 Constant
Subject To
 R0: 20 n + 35 v <= 20
 R1: 0.8 n + 0.65 v <= 50
Bounds
 Constant = 1
End
